128
10000000
1259777
1348831
693599
2095744
782534
176862
666291
1002435
389948
2042946
1082746
530470
72524
23422
1228342
2019043
834910
2285759
1882355
820639
93963
711470
315374
2179521
1813373
434943
779654
935384
1404673
1135
419569
655820
1141743
2251250
607802
2082044
12957
2062772
160162
1116238
2326019
1656935
2469792
2361492
2315282
2421393
1572980
2362335
518716
535467
1970194
300268
539454
1626620
2251712
184740
857518
414658
677980
401614
474108
423841
693616
1749083
251938
1587035
569760
563107
2300817
995109
2413292
2279618
827698
2133800
1672637
1731874
1701287
2093422
1679660
33509
194200
1806529
603148
232220
1397063
2262178
2292795
1075814
1996521
1219065
1200421
2425817
1924687
1283796
1342971
858510
1645794
253860
1551005
102529
489976
1132946
1752555
1174699
167327
245325
545021
656270
2316661
1504270
1313258
595270
2344645
555685
1977293
319907
997979
3530
700612
348019
1122740
1281828
1643545
897211
2289397
1027311
1411953
1156440
